p cnf 32 46
-27 12 0 
-8 24 0 
-12 32 0 
-1 30 0 
-23 1 0 
-10 32 0 
-22 8 0 
-3 13 0 
-4 28 0 
-8 22 0 
-3 28 0 
-4 25 0 
-17 11 0 
-18 9 0 
-31 3 0 
-5 26 0 
-3 29 0 
-5 14 0 
-12 15 0 
-25 4 0 
-20 12 0 
-16 6 0 
-7 15 0 
-29 3 0 
-21 2 0 
-28 3 4 0 
-15 7 8 12 0 
-12 27 0 
-7 14 0 
-24 8 0 
-12 20 0 
-6 16 0 
-30 1 0 
-2 21 0 
-26 5 0 
-9 19 0 
-11 17 0 
-1 23 0 
-8 15 0 
-32 10 12 0 
-3 31 0 
-13 3 0 
-14 5 7 0 
3 7 10 0 
-19 9 0 
-9 18 0 
